(declare-const |tmp':79:87:104| Int)
(declare-const |K:84:85:101| Int)
(declare-const |y':80:86:102| Int)
(declare-const |tmp:62:91:103| Int)
(declare-const |K:96:97| Int)
(declare-const |havoc:61:88:105| Int)
(declare-const |i':92:98| Int)
(assert (and (or (not (<= (- |K:96:97|) 0))
                   (= (+ |i':92:98| (* -3 |K:96:97|)) 0))
               (or (and (= |K:96:97| 0) (= (- |i':92:98|) 0))
                     (and (<= (+ (- |K:96:97|) 1) 0)
                            (<= (+ |i':92:98| -12) 0))) (<= (- |K:96:97|) 0)
               (<= (+ (- |i':92:98|) 10) 0)
               (or (not (<= (- |K:84:85:101|) 0))
                     (= (+ |y':80:86:102| (- |K:84:85:101|) (- |i':92:98|)) 0))
               (or (and (= |K:84:85:101| 0)
                          (= (+ (- |y':80:86:102|) |i':92:98|) 0)
                          (= (+ (- |tmp':79:87:104|) |tmp:62:91:103|) 0))
                     (<= (+ (- |K:84:85:101|) 1) 0)) (<= (- |K:84:85:101|) 0)
               (= |havoc:61:88:105| 0)))
(check-sat)
